424 5
10 10 10 10 10 

0 0 0 0 0 0 5 2 14 26 38 50 
0 0 0 0 0 0 2 3 4 
8 0 0 0 4 0 2 5 312 
10 0 0 0 10 0 1 5 
4 0 0 0 4 0 2 10 6 
3 0 0 0 10 0 1 7 
10 0 0 0 8 0 1 8 
10 0 0 0 6 0 2 11 9 
7 0 0 0 6 0 1 12 
7 0 0 0 10 0 1 11 
3 0 0 0 9 0 1 13 
8 0 0 0 8 0 1 13 
0 0 0 0 0 0 1 62 
0 0 0 0 0 0 3 15 19 22 
1 4 0 0 0 0 2 24 16 
5 8 0 0 0 0 1 17 
10 9 0 0 0 0 1 18 
10 5 0 0 0 0 1 20 
5 7 0 0 0 0 1 20 
3 7 0 0 0 0 1 21 
2 10 0 0 0 0 1 23 
2 10 0 0 0 0 2 23 418 
5 5 0 0 0 0 1 25 
3 10 0 0 0 0 1 25 
0 0 0 0 0 0 1 62 
0 0 0 0 0 0 2 27 36 
1 4 0 0 0 0 1 28 
9 3 0 0 0 0 2 33 29 
4 9 0 0 0 0 3 35 30 313 
5 10 0 0 0 0 1 31 
2 9 0 0 0 0 1 32 
5 7 0 0 0 0 1 34 
2 4 0 0 0 0 1 35 
1 10 0 0 0 0 1 37 
1 9 0 0 0 0 1 37 
2 10 0 0 0 0 1 37 
0 0 0 0 0 0 1 62 
0 0 0 0 0 0 2 39 45 
3 0 0 0 0 2 2 48 40 
1 0 0 0 0 6 2 41 316 
2 0 0 0 0 7 2 47 42 
9 0 0 0 0 10 1 43 
8 0 0 0 0 8 1 44 
8 0 0 0 0 10 1 46 
8 0 0 0 0 7 1 46 
3 0 0 0 0 5 1 49 
2 0 0 0 0 10 1 49 
7 0 0 0 0 10 1 49 
0 0 0 0 0 0 1 62 
0 0 0 0 0 0 1 51 
3 0 5 0 0 0 1 52 
1 0 5 0 0 0 2 55 53 
1 0 7 0 0 0 1 54 
9 0 8 0 0 0 2 57 56 
8 0 10 0 0 0 1 56 
7 0 10 0 0 0 2 60 58 
7 0 9 0 0 0 1 58 
6 0 5 0 0 0 2 59 268 
9 0 7 0 0 0 1 61 
8 0 9 0 0 0 1 61 
0 0 0 0 0 0 1 62 
0 0 0 0 0 0 5 63 75 87 99 111 
0 0 0 0 0 0 2 64 66 
9 0 0 0 0 5 1 65 
8 0 0 0 0 3 2 73 67 
3 0 0 0 0 5 2 73 70 
4 0 0 0 0 10 2 68 311 
7 0 0 0 0 9 1 69 
5 0 0 0 0 10 1 71 
5 0 0 0 0 10 1 71 
7 0 0 0 0 6 1 72 
6 0 0 0 0 7 1 74 
8 0 0 0 0 10 1 74 
0 0 0 0 0 0 1 123 
0 0 0 0 0 0 2 76 77 
1 1 0 0 0 0 2 81 78 
9 7 0 0 0 0 2 81 78 
9 9 0 0 0 0 1 79 
10 4 0 0 0 0 1 80 
6 10 0 0 0 0 1 82 
5 6 0 0 0 0 1 82 
10 10 0 0 0 0 2 85 83 
2 8 0 0 0 0 1 84 
10 10 0 0 0 0 1 86 
1 10 0 0 0 0 1 86 
0 0 0 0 0 0 1 123 
0 0 0 0 0 0 2 88 93 
9 0 0 0 1 0 1 89 
10 0 0 0 10 0 2 97 90 
3 0 0 0 8 0 1 91 
5 0 0 0 6 0 2 96 92 
10 0 0 0 6 0 1 94 
7 0 0 0 6 0 1 94 
10 0 0 0 8 0 1 95 
2 0 0 0 10 0 1 98 
8 0 0 0 10 0 1 98 
2 0 0 0 10 0 1 98 
0 0 0 0 0 0 1 123 
0 0 0 0 0 0 2 100 104 
2 0 4 0 0 0 2 103 101 
6 0 7 0 0 0 1 102 
5 0 10 0 0 0 2 106 105 
9 0 6 0 0 0 2 106 105 
1 0 9 0 0 0 2 106 105 
7 0 6 0 0 0 1 107 
9 0 10 0 0 0 1 107 
3 0 7 0 0 0 1 108 
5 0 6 0 0 0 1 109 
9 0 10 0 0 0 1 110 
0 0 0 0 0 0 1 123 
0 0 0 0 0 0 1 112 
10 0 1 0 0 0 2 118 113 
2 0 10 0 0 0 2 121 114 
7 0 8 0 0 0 1 115 
7 0 7 0 0 0 2 120 116 
3 0 10 0 0 0 1 117 
7 0 9 0 0 0 1 119 
1 0 10 0 0 0 1 120 
5 0 8 0 0 0 1 122 
7 0 4 0 0 0 1 122 
1 0 8 0 0 0 1 122 
0 0 0 0 0 0 1 123 
0 0 0 0 0 0 5 124 156 188 220 252 
0 0 0 0 0 0 2 125 154 
3 0 0 9 5 4 1 126 
3 0 0 6 7 7 1 127 
9 0 0 10 10 10 2 153 128 
5 0 0 10 10 9 1 129 
8 0 0 4 8 6 2 152 130 
2 0 0 9 8 5 4 151 150 149 131 
7 0 0 4 6 4 2 148 132 
8 0 0 4 10 6 1 133 
10 0 0 4 9 5 1 134 
4 0 0 6 7 9 1 135 
9 0 0 6 10 8 1 136 
6 0 0 8 10 8 2 147 137 
3 0 0 7 4 10 1 138 
9 0 0 6 8 4 1 139 
5 0 0 4 10 6 1 140 
8 0 0 10 7 6 1 141 
2 0 0 6 4 8 1 142 
9 0 0 9 9 5 1 143 
8 0 0 10 3 7 1 144 
4 0 0 10 10 10 1 145 
10 0 0 9 8 6 1 146 
6 0 0 5 8 8 1 155 
1 0 0 9 9 8 1 155 
3 0 0 10 4 10 1 155 
6 0 0 10 5 10 1 155 
5 0 0 10 5 10 1 155 
2 0 0 7 9 8 1 155 
7 0 0 5 7 10 1 155 
6 0 0 8 7 10 1 155 
9 0 0 10 8 8 1 155 
0 0 0 0 0 0 1 424 
0 0 0 0 0 0 6 157 182 183 184 185 186 
4 0 8 0 7 4 1 158 
6 0 5 0 8 10 2 181 159 
2 0 4 0 8 10 2 180 160 
1 0 3 0 7 9 1 161 
8 0 6 0 8 7 1 162 
1 0 5 0 9 5 1 163 
8 0 7 0 3 6 1 164 
10 0 10 0 10 9 1 165 
2 0 8 0 6 7 2 179 166 
10 0 10 0 10 7 1 167 
8 0 6 0 8 7 1 168 
10 0 10 0 10 9 1 169 
10 0 6 0 10 6 1 170 
5 0 8 0 4 10 1 171 
9 0 6 0 4 5 1 172 
4 0 8 0 10 8 1 173 
8 0 9 0 6 9 1 174 
9 0 10 0 10 7 1 175 
1 0 9 0 8 5 1 176 
3 0 5 0 5 8 1 177 
3 0 8 0 7 8 1 178 
8 0 10 0 7 9 1 187 
1 0 8 0 7 4 1 187 
10 0 9 0 7 8 1 187 
9 0 8 0 5 5 1 187 
8 0 7 0 9 10 1 187 
4 0 7 0 8 8 1 187 
6 0 9 0 9 10 1 187 
6 0 7 0 10 5 1 187 
2 0 9 0 5 10 1 187 
0 0 0 0 0 0 1 424 
0 0 0 0 0 0 2 189 195 
6 6 0 6 0 4 1 190 
10 7 0 8 0 10 2 193 191 
3 5 0 5 0 10 1 192 
2 7 0 3 0 6 1 194 
7 5 0 7 0 7 1 194 
10 10 0 7 0 9 2 201 196 
7 7 0 7 0 7 2 201 196 
1 6 0 8 0 5 1 197 
4 10 0 10 0 9 2 210 198 
4 10 0 5 0 10 1 199 
9 7 0 10 0 10 1 200 
9 8 0 9 0 9 3 215 208 203 
6 6 0 5 0 6 2 203 202 
8 6 0 9 0 4 2 215 204 
4 8 0 10 0 7 1 204 
9 10 0 9 0 9 2 218 205 
4 9 0 8 0 5 1 206 
2 9 0 8 0 10 1 207 
4 9 0 8 0 10 1 209 
6 6 0 5 0 7 1 209 
7 6 0 10 0 10 1 211 
5 10 0 7 0 9 3 218 215 214 
7 10 0 10 0 5 1 212 
6 9 0 6 0 10 1 213 
1 2 0 10 0 4 1 214 
9 10 0 6 0 10 1 216 
6 3 0 10 0 7 1 216 
6 8 0 7 0 8 1 217 
3 6 0 3 0 6 1 219 
9 10 0 9 0 2 1 219 
0 0 0 0 0 0 1 424 
0 0 0 0 0 0 2 221 250 
9 4 0 4 0 2 1 222 
4 5 0 8 0 8 1 223 
8 7 0 10 0 7 1 224 
10 4 0 7 0 5 1 225 
10 7 0 3 0 7 2 249 226 
5 5 0 10 0 5 1 227 
2 7 0 8 0 10 4 248 247 246 228 
1 10 0 10 0 8 2 245 229 
4 10 0 6 0 10 2 240 230 
10 8 0 3 0 8 1 231 
10 7 0 10 0 10 1 232 
8 2 0 9 0 5 2 244 233 
10 10 0 8 0 8 1 234 
2 9 0 10 0 5 1 235 
5 7 0 6 0 5 1 236 
8 6 0 9 0 4 1 237 
5 9 0 8 0 9 1 238 
6 10 0 7 0 10 1 239 
5 10 0 7 0 10 1 241 
6 5 0 8 0 8 1 241 
4 8 0 7 0 6 1 242 
8 8 0 5 0 6 1 243 
6 10 0 9 0 9 1 251 
8 10 0 10 0 10 1 251 
3 9 0 10 0 9 1 251 
7 5 0 8 0 10 1 251 
6 9 0 5 0 10 1 251 
7 7 0 9 0 7 1 251 
9 10 0 5 0 7 1 251 
4 7 0 6 0 7 1 251 
0 0 0 0 0 0 1 424 
0 0 0 0 0 0 1 253 
4 0 0 0 3 0 1 254 
1 0 0 0 6 0 2 260 255 
2 0 0 0 9 0 2 259 256 
1 0 0 0 7 0 2 261 257 
1 0 0 0 10 0 1 258 
9 0 0 0 7 0 1 262 
7 0 0 0 7 0 1 261 
1 0 0 0 8 0 1 261 
10 0 0 0 10 0 1 263 
3 0 0 0 8 0 1 263 
0 0 0 0 0 0 5 264 286 308 320 342 
0 0 0 0 0 0 1 265 
7 0 5 0 9 0 1 266 
6 0 6 0 7 0 2 269 267 
7 0 4 0 10 0 2 272 268 
7 0 8 0 10 0 1 270 
9 0 10 0 6 0 1 270 
9 0 7 0 6 0 2 275 271 
9 0 10 0 9 0 2 276 273 
9 0 4 0 4 0 2 275 274 
5 0 6 0 3 0 1 274 
8 0 8 0 7 0 2 278 277 
5 0 8 0 10 0 1 277 
6 0 9 0 8 0 1 277 
7 0 10 0 10 0 1 279 
5 0 8 0 9 0 1 279 
6 0 5 0 10 0 1 280 
8 0 8 0 6 0 1 281 
10 0 7 0 7 0 1 282 
8 0 8 0 6 0 1 283 
1 0 9 0 9 0 1 284 
1 0 10 0 4 0 1 285 
0 0 0 0 0 0 1 424 
0 0 0 0 0 0 1 287 
8 4 0 6 0 0 2 291 288 
7 10 0 6 0 0 1 289 
4 8 0 5 0 0 1 290 
9 6 0 7 0 0 2 297 292 
9 9 0 8 0 0 2 297 294 
9 9 0 9 0 0 1 293 
2 7 0 6 0 0 2 299 294 
6 10 0 9 0 0 1 295 
3 9 0 9 0 0 1 296 
3 6 0 7 0 0 2 303 298 
1 9 0 7 0 0 1 299 
3 10 0 6 0 0 2 304 300 
10 3 0 9 0 0 2 303 300 
2 2 0 10 0 0 1 301 
1 6 0 5 0 0 1 302 
6 9 0 5 0 0 1 305 
6 10 0 7 0 0 1 305 
5 10 0 10 0 0 1 305 
7 6 0 9 0 0 1 306 
2 7 0 10 0 0 1 307 
0 0 0 0 0 0 1 424 
0 0 0 0 0 0 1 309 
10 4 0 0 0 0 1 310 
7 5 0 0 0 0 1 311 
6 6 0 0 0 0 2 314 312 
3 8 0 0 0 0 1 313 
9 10 0 0 0 0 3 318 316 315 
7 10 0 0 0 0 2 318 317 
3 7 0 0 0 0 1 317 
3 10 0 0 0 0 1 317 
10 10 0 0 0 0 1 319 
3 5 0 0 0 0 1 319 
0 0 0 0 0 0 5 364 376 388 400 412 
0 0 0 0 0 0 1 321 
7 0 2 1 0 0 2 326 322 
5 0 10 7 0 0 2 330 323 
5 0 8 8 0 0 1 324 
6 0 7 5 0 0 2 332 325 
1 0 5 8 0 0 2 335 327 
2 0 8 5 0 0 3 335 332 329 
2 0 10 4 0 0 1 328 
9 0 5 10 0 0 1 329 
6 0 4 8 0 0 2 333 331 
3 0 6 10 0 0 2 334 332 
1 0 8 8 0 0 1 334 
1 0 9 8 0 0 1 333 
5 0 10 10 0 0 1 336 
8 0 7 6 0 0 1 336 
4 0 9 10 0 0 1 336 
3 0 9 7 0 0 1 337 
3 0 10 8 0 0 1 338 
9 0 7 10 0 0 1 339 
7 0 6 10 0 0 1 340 
5 0 10 7 0 0 1 341 
0 0 0 0 0 0 1 424 
0 0 0 0 0 0 4 343 356 361 362 
2 0 5 0 0 5 2 360 344 
4 0 6 0 0 6 1 345 
8 0 10 0 0 10 1 346 
6 0 6 0 0 8 1 347 
8 0 9 0 0 10 1 348 
7 0 9 0 0 6 2 359 349 
10 0 10 0 0 10 1 350 
6 0 10 0 0 5 1 351 
1 0 5 0 0 10 1 352 
6 0 10 0 0 10 1 353 
4 0 5 0 0 6 1 354 
7 0 10 0 0 10 1 355 
8 0 8 0 0 9 1 357 
7 0 7 0 0 7 1 357 
1 0 10 0 0 5 1 358 
7 0 9 0 0 5 1 363 
10 0 4 0 0 9 1 363 
10 0 2 0 0 4 1 363 
1 0 10 0 0 7 1 363 
5 0 5 0 0 8 1 363 
0 0 0 0 0 0 1 424 
0 0 0 0 0 0 3 365 371 374 
2 3 0 0 0 0 2 373 366 
10 6 0 0 0 0 1 367 
3 8 0 0 0 0 1 368 
3 6 0 0 0 0 1 369 
1 10 0 0 0 0 1 370 
1 10 0 0 0 0 1 372 
5 8 0 0 0 0 1 373 
1 8 0 0 0 0 1 375 
1 8 0 0 0 0 1 375 
4 8 0 0 0 0 1 375 
0 0 0 0 0 0 1 424 
0 0 0 0 0 0 2 377 380 
5 0 6 0 0 0 1 378 
3 0 4 0 0 0 2 386 379 
6 0 10 0 0 0 1 381 
7 0 10 0 0 0 1 381 
3 0 5 0 0 0 1 382 
4 0 10 0 0 0 2 385 383 
10 0 5 0 0 0 1 384 
7 0 7 0 0 0 1 387 
2 0 8 0 0 0 1 387 
3 0 10 0 0 0 1 387 
0 0 0 0 0 0 1 424 
0 0 0 0 0 0 4 389 391 397 398 
1 2 0 0 0 0 1 390 
2 8 0 0 0 0 1 392 
10 10 0 0 0 0 1 392 
5 6 0 0 0 0 1 393 
8 3 0 0 0 0 1 394 
7 8 0 0 0 0 1 395 
7 10 0 0 0 0 1 396 
10 10 0 0 0 0 1 399 
10 8 0 0 0 0 1 399 
3 10 0 0 0 0 1 399 
0 0 0 0 0 0 1 424 
0 0 0 0 0 0 3 401 404 410 
8 0 2 0 0 0 1 402 
8 0 9 0 0 0 1 403 
10 0 3 0 0 0 1 405 
7 0 6 0 0 0 2 409 407 
6 0 10 0 0 0 1 406 
8 0 7 0 0 0 1 407 
2 0 9 0 0 0 1 408 
10 0 9 0 0 0 1 411 
10 0 10 0 0 0 1 411 
9 0 10 0 0 0 1 411 
0 0 0 0 0 0 1 424 
0 0 0 0 0 0 4 413 415 417 419 
2 0 2 0 0 0 1 414 
4 0 5 0 0 0 1 416 
1 0 10 0 0 0 1 416 
9 0 10 0 0 0 1 418 
5 0 7 0 0 0 1 418 
9 0 4 0 0 0 1 420 
6 0 9 0 0 0 1 420 
2 0 10 0 0 0 1 421 
2 0 8 0 0 0 1 422 
4 0 10 0 0 0 1 423 
0 0 0 0 0 0 1 424 
0 0 0 0 0 0 0 
